db/inputs/22025150139736138207893126472025087.smt2
(set-logic QF_FP)
(declare-const x0 (_ FloatingPoint 11 53))
(declare-const x1 (_ FloatingPoint 11 53))
(declare-const x2 (_ FloatingPoint 11 53))
(declare-const x3 (_ FloatingPoint 11 53))
(declare-const x4 (_ FloatingPoint 11 53))
(declare-const x5 (_ FloatingPoint 11 53))
(declare-const x6 (_ FloatingPoint 11 53))
(declare-const x7 (_ FloatingPoint 11 53))
(declare-const x8 (_ FloatingPoint 11 53))
(declare-const x9 (_ FloatingPoint 11 53))
(declare-const x10 (_ FloatingPoint 11 53))
(declare-const x11 (_ FloatingPoint 11 53))
(declare-const x12 (_ FloatingPoint 11 53))
(declare-const x13 (_ FloatingPoint 11 53))
(declare-const x14 (_ FloatingPoint 11 53))
(assert (fp.gt (fp.mul RNE x7 x5) (fp.div RNE x11 x9)))
(assert (fp.geq (fp.div RNE x7 x6) (fp.div RNE x2 x2)))
(assert (fp.leq (fp.neg x13) (fp.neg x4)))
(assert (fp.geq (fp.add RNE x10 x10) (fp.neg x8)))
(assert (fp.eq (fp.div RNE x3 x11) (fp.div RNE x6 x2)))
(assert (fp.gt (fp.sub RNE x11 x10) (fp.sub RNE x11 x11)))
(assert (fp.geq (fp.add RNE x1 x6) (fp.sub RNE x2 x13)))
(check-sat)
