db/data/22025150139736138207893126472025087.z3.out
-------------------
2500.116584615
